% File represents an instance of a Composite Structure problem to be solved by a CP framework
% Created on 2025-03-25 14:05:14.916
T = 60;
n = 25;
m = 40;
edges = [(1, 2),
(6, 7),
(12, 11),
(16, 17),
(21, 22),
(3, 2),
(7, 8),
(13, 12),
(17, 18),
(22, 23),
(4, 3),
(9, 8),
(14, 13),
(18, 19),
(24, 23),
(4, 5),
(9, 10),
(14, 15),
(20, 19),
(25, 24),
(1, 6),
(6, 11),
(16, 11),
(21, 16),
(7, 2),
(7, 12),
(17, 12),
(22, 17),
(8, 3),
(8, 13),
(18, 13),
(23, 18),
(9, 4),
(14, 9),
(19, 14),
(24, 19),
(5, 10),
(10, 15),
(20, 15),
(25, 20)];
counts = [|9, 3, 24, 17,
|8, 2, 20, 13,
|8, 2, 21, 13,
|8, 3, 24, 15,
|8, 3, 23, 15,
|8, 3, 24, 17,
|8, 3, 24, 16,
|8, 3, 24, 15,
|8, 3, 25, 15,
|8, 3, 23, 13,
|6, 2, 23, 15,
|7, 2, 23, 15,
|7, 3, 23, 15,
|8, 3, 26, 15,
|8, 3, 21, 12,
|9, 3, 27, 17,
|9, 3, 27, 16,
|8, 3, 27, 16,
|8, 3, 26, 16,
|8, 3, 27, 16,
|9, 5, 28, 18,
|9, 4, 28, 18,
|9, 3, 27, 16,
|9, 3, 28, 16,
|10, 3, 30, 17|];
